
Gurobi 9.0.2 (win64) logging started Sat Oct 10 18:24:38 2020

Changed value of parameter logfile to result\v6.2-20201010T1221\scenario_2030_eff085_cab5000.log
   Prev:   Default: 
Gurobi Optimizer version 9.0.2 build v9.0.2rc0 (win64)
Optimize a model with 1384150 rows, 884815 columns and 3912197 nonzeros
Model fingerprint: 0x510afe53
Coefficient statistics:
  Matrix range     [1e-07, 5e+05]
  Objective range  [1e+00, 1e+00]
  Bounds range     [0e+00, 0e+00]
  RHS range        [2e-05, 3e+08]
Warning: Model contains large matrix coefficient range
         Consider reformulating model or setting NumericFocus parameter
         to avoid numerical issues.

Concurrent LP optimizer: primal simplex, dual simplex, and barrier
Showing barrier log only...

Presolve removed 1129315 rows and 656241 columns
Presolve time: 3.49s
Presolved: 254835 rows, 342440 columns, 891938 nonzeros

Ordering time: 0.12s

Barrier statistics:
 Dense cols : 9
 AA' NZ     : 8.194e+05
 Factor NZ  : 4.461e+06 (roughly 300 MBytes of memory)
 Factor Ops : 1.125e+08 (less than 1 second per iteration)
 Threads    : 30

                  Objective                Residual
Iter       Primal          Dual         Primal    Dual     Compl     Time
   0  -2.11404465e+16 -1.58516173e+15  6.34e+06 1.56e+04  2.54e+12     4s
   1  -3.21252104e+15 -1.58990865e+15  9.56e+05 4.74e+06  8.37e+11     5s
   2  -1.36161966e+15 -1.27782420e+15  4.03e+05 7.46e+05  2.19e+11     5s
   3  -4.75155945e+14 -1.05034170e+15  1.38e+05 1.95e+05  6.98e+10     5s
   4  -1.10797684e+14 -6.38918339e+14  3.08e+04 4.43e+04  1.62e+10     5s
   5  -3.58518466e+13 -3.93099492e+14  1.01e+04 1.74e+04  5.95e+09     6s
   6  -1.57169021e+13 -2.85047396e+14  4.74e+03 8.76e+03  2.96e+09     6s
   7  -6.69610723e+12 -1.52368043e+14  2.21e+03 1.51e+03  9.54e+08     6s
   8  -7.71569646e+11 -7.11141544e+13  4.79e+02 2.01e+02  2.09e+08     6s
   9   6.84439720e+11 -8.75839212e+12  1.97e+00 2.07e+00  1.40e+07     7s
  10   1.72615318e+11 -1.11921473e+12  1.63e-01 1.44e-01  1.88e+06     7s
  11   9.28841943e+10 -4.01718640e+11  7.80e-02 1.12e-08  7.19e+05     7s
  12   4.82764297e+10 -2.76770425e+11  3.61e-02 1.12e-08  4.71e+05     8s
  13   2.15386201e+10 -1.01870620e+11  1.24e-02 1.12e-08  1.79e+05     8s
  14   2.05082527e+10 -3.79688550e+10  1.16e-02 1.12e-08  8.49e+04     8s
  15   1.73034573e+10 -2.16230717e+10  7.57e-03 1.12e-08  5.65e+04     8s
  16   1.13000289e+10 -2.41797000e+09  2.71e-03 1.12e-08  1.99e+04     8s
  17   9.45504001e+09  1.93643186e+09  1.26e-03 9.31e-09  1.09e+04     9s
  18   9.08369527e+09  4.87691211e+09  1.00e-03 5.59e-09  6.09e+03     9s
  19   8.87096559e+09  5.43584315e+09  8.53e-04 5.59e-09  4.98e+03     9s
  20   8.67433074e+09  5.78453371e+09  7.15e-04 5.59e-09  4.18e+03    10s
  21   8.48219199e+09  5.90166209e+09  5.79e-04 5.59e-09  3.74e+03    10s
  22   8.40092364e+09  6.11443822e+09  5.25e-04 3.73e-09  3.31e+03    10s
  23   8.09307203e+09  6.81269830e+09  3.02e-04 3.73e-09  1.85e+03    11s
  24   7.90892574e+09  7.13762179e+09  1.80e-04 3.73e-09  1.12e+03    11s
  25   7.77471314e+09  7.24712206e+09  9.50e-05 2.79e-09  7.63e+02    11s
  26   7.73745776e+09  7.34002558e+09  7.25e-05 1.86e-09  5.74e+02    12s
  27   7.69201129e+09  7.36504622e+09  4.47e-05 1.86e-09  4.72e+02    12s
  28   7.67637682e+09  7.40617225e+09  3.58e-05 2.79e-09  3.90e+02    12s
  29   7.64893848e+09  7.49302839e+09  2.07e-05 2.79e-09  2.25e+02    12s
  30   7.62917296e+09  7.54119786e+09  1.02e-05 1.86e-09  1.27e+02    13s
  31   7.62085609e+09  7.56057579e+09  6.09e-06 1.86e-09  8.71e+01    13s
  32   7.61646914e+09  7.58817815e+09  3.95e-06 1.86e-09  4.09e+01    13s
  33   7.61266483e+09  7.59839067e+09  2.16e-06 1.86e-09  2.06e+01    14s
  34   7.61024846e+09  7.60219756e+09  1.07e-06 1.86e-09  1.16e+01    14s
  35   7.60896694e+09  7.60476475e+09  5.04e-07 1.86e-09  6.07e+00    14s
  36   7.60846571e+09  7.60549665e+09  7.60e-07 2.79e-09  4.29e+00    14s
  37   7.60797605e+09  7.60696007e+09  9.56e-07 1.86e-09  1.47e+00    14s
  38   7.60780129e+09  7.60742898e+09  7.31e-07 1.86e-09  5.38e-01    15s
  39   7.60776101e+09  7.60761051e+09  1.52e-07 1.86e-09  2.17e-01    15s
  40   7.60775015e+09  7.60768410e+09  4.89e-08 1.86e-09  9.54e-02    15s
  41   7.60774375e+09  7.60774226e+09  1.08e-08 2.79e-09  2.14e-03    15s
  42   7.60774371e+09  7.60774371e+09  3.63e-06 2.79e-09  4.22e-06    16s
  43   7.60774371e+09  7.60774371e+09  3.63e-06 2.79e-09  4.22e-06    16s

Barrier solved model in 43 iterations and 16.08 seconds
Optimal objective 7.60774371e+09

Crossover log...

   76929 DPushes remaining with DInf 0.0000000e+00                16s
     640 DPushes remaining with DInf 0.0000000e+00                20s
       0 DPushes remaining with DInf 0.0000000e+00                21s
Warning: Markowitz tolerance tightened to 0.5

   92350 PPushes remaining with PInf 2.8418783e-03                21s
   43135 PPushes remaining with PInf 7.9265871e-02                27s
   27242 PPushes remaining with PInf 1.0368718e-01                35s
       0 PPushes remaining with PInf 0.0000000e+00                37s

  Push phase complete: Pinf 0.0000000e+00, Dinf 2.5115870e-08     37s

Extra one simplex iteration after uncrush
Iteration    Objective       Primal Inf.    Dual Inf.      Time
  120659    7.6077437e+09   0.000000e+00   0.000000e+00     40s

Solved with barrier
Solved in 120659 iterations and 39.92 seconds
Optimal objective  7.607743710e+09
Warning: unscaled primal violation = 0.0008733 and residual = 0.0008733
